5231.79
0 52 34 5 10 1 2 9 6 8 3 4 7 11 17 0
0 14 18 20 12 15 19 21 13 0
0 28 41 40 33 31 47 37 46 30 44 23 24 22 139 25 0
0 39 36 42 43 45 35 32 29 58 49 53 27 88 0
0 48 38 51 55 62 56 54 59 60 64 0
0 65 68 67 63 57 61 69 72 73 124 0
0 70 71 77 76 79 84 86 81 85 83 66 0
0 93 94 91 74 110 78 80 87 82 0
0 89 96 107 90 92 116 140 120 0
0 114 108 106 98 95 101 104 105 97 100 121 137 0
0 109 111 115 75 99 129 122 119 0
0 112 117 118 113 102 134 130 126 131 123 143 0
0 142 145 148 150 136 132 127 125 128 138 133 135 16 141 144 147 0
0 103 26 50 149 146 0
